\ENCODING=ISO-8859-1
\Problem name: IloCplex

Minimize
 obj: 252 y(0) + 126 y(1) + 77 y(2) + 178 y(3) + 240 y(4) + 126 y(5) + 77 y(6)
      + 178 y(7) + 125 y(8) + 234 y(9) + 124 y(10) + 77 y(11) + 178 y(12)
      + 140 y(13) + 226 y(14) + 126 y(15) + 200 y(16) + 188 y(17) + 112 y(18)
      + 227 y(19) + 103 y(20) + 225 y(21) + 164 y(22) + 124 y(23) + 193 y(24)
      + 103 y(25) + 225 y(26) + 164 y(27) + 124 y(28) + 178 y(29) + 85 y(30)
      + 191 y(31) + 175 y(32) + 52 y(33) + 146 y(34) + 85 y(35) + 191 y(36)
      + 175 y(37) + 53 y(38) + 130 y(39) + 85 y(40) + 191 y(41) + 175 y(42)
      + 93 y(43) + 126 y(44) + 77 y(45) + 178 y(46) + 252 y(47) + 125 y(48)
      + 77 y(49) + 178 y(50) + 252 y(51) + 78 y(52) + 124 y(53) + 77 y(54)
      + 178 y(55) + 252 y(56) + 91 y(57) + 126 y(58) + 200 y(59) + 188 y(60)
      + 234 y(61) + 97 y(62) + 103 y(63) + 225 y(64) + 164 y(65) + 234 y(66)
      + 123 y(67) + 97 y(68) + 191 y(69) + 175 y(70) + 193 y(71) + 92 y(72)
      + 85 y(73) + 191 y(74) + 175 y(75) + 193 y(76) + 92 y(77) + 77 y(78)
      + 178 y(79) + 252 y(80) + 126 y(81) + 200 y(82) + 188 y(83) + 234 y(84)
      + 124 y(85) + 75 y(86) + 225 y(87) + 164 y(88) + 234 y(89) + 124 y(90)
      + 75 y(91) + 184 y(92) + 182 y(93) + 193 y(94) + 103 y(95) + 66 y(96)
      + 191 y(97) + 175 y(98) + 193 y(99) + 103 y(100) + 67 y(101) + 178 y(102)
      + 252 y(103) + 126 y(104) + 77 y(105) + 192 y(106) + 240 y(107)
      + 126 y(108) + 77 y(109) + 31 y(110) + 187 y(111) + 240 y(112)
      + 126 y(113) + 77 y(114) + 95 y(115) + 188 y(116) + 234 y(117)
      + 124 y(118) + 77 y(119) + 126 y(120) + 164 y(121) + 234 y(122)
      + 124 y(123) + 77 y(124) + 158 y(125) + 182 y(126) + 193 y(127)
      + 103 y(128) + 225 y(129) + 117 y(130) + 175 y(131) + 193 y(132)
      + 103 y(133) + 225 y(134) + 128 y(135) + 161 y(136) + 178 y(137)
      + 85 y(138) + 191 y(139) + 127 y(140)
Subject To
 c1:  y(0) + y(8) + y(13) + y(17) + y(22) + y(27) + y(32) + y(37) + y(42)
      + y(47) + y(51) + y(56) + y(60) + y(65) + y(70) + y(75) + y(80) + y(83)
      + y(88) + y(93) + y(98) + y(103) + y(106) + y(111) + y(116) + y(121)
      + y(126) + y(131) + y(136)  = 1
 c2:  y(0) + y(8) + y(13) + y(17) + y(22) + y(27) + y(32) + y(37) + y(42)
      + y(47) + y(51) + y(56) + y(60) + y(65) + y(70) + y(75) + y(80) + y(83)
      + y(88) + y(93) + y(98) + y(103) + y(106) + y(111) + y(116) + y(121)
      + y(126) + y(131) + y(136)  = 1
 c3:  y(0) + y(8) + y(13) + y(17) + y(22) + y(27) + y(32) + y(37) + y(42)
      + y(47) + y(51) + y(56) + y(60) + y(65) + y(70) + y(75) + y(80) + y(83)
      + y(88) + y(93) + y(98) + y(103) + y(106) + y(111) + y(116) + y(121)
      + y(126) + y(131) + y(136)  = 1
 c4:  y(0) + y(4) + y(9) + y(18) + y(23) + y(28) + y(32) + y(37) + y(42)
      + y(47) + y(51) + y(56) + y(61) + y(66) + y(70) + y(75) + y(80) + y(84)
      + y(89) + y(93) + y(98) + y(103) + y(107) + y(112) + y(117) + y(122)
      + y(126) + y(131) + y(136)  = 1
 c5:  y(0) + y(4) + y(9) + y(18) + y(23) + y(28) + y(32) + y(37) + y(42)
      + y(47) + y(51) + y(56) + y(61) + y(66) + y(70) + y(75) + y(80) + y(84)
      + y(89) + y(93) + y(98) + y(103) + y(107) + y(112) + y(117) + y(122)
      + y(126) + y(131) + y(136)  = 1
 c6:  y(0) + y(4) + y(9) + y(18) + y(23) + y(28) + y(32) + y(37) + y(42)
      + y(47) + y(51) + y(56) + y(61) + y(66) + y(70) + y(75) + y(80) + y(84)
      + y(89) + y(93) + y(98) + y(103) + y(107) + y(112) + y(117) + y(122)
      + y(126) + y(131) + y(136)  = 1
 c7:  y(0) + y(4) + y(9) + y(14) + y(19) + y(28) + y(32) + y(37) + y(42)
      + y(47) + y(51) + y(56) + y(61) + y(66) + y(70) + y(75) + y(80) + y(84)
      + y(89) + y(93) + y(98) + y(103) + y(107) + y(112) + y(117) + y(122)
      + y(126) + y(131) + y(136)  = 1
 c8:  y(0) + y(4) + y(9) + y(14) + y(19) + y(28) + y(32) + y(37) + y(42)
      + y(47) + y(51) + y(56) + y(61) + y(66) + y(70) + y(75) + y(80) + y(84)
      + y(89) + y(93) + y(98) + y(103) + y(107) + y(112) + y(117) + y(122)
      + y(126) + y(131) + y(136)  = 1
 c9:  y(0) + y(4) + y(9) + y(14) + y(19) + y(28) + y(32) + y(37) + y(42)
      + y(47) + y(51) + y(56) + y(61) + y(66) + y(70) + y(75) + y(80) + y(84)
      + y(89) + y(93) + y(98) + y(103) + y(107) + y(112) + y(117) + y(122)
      + y(126) + y(131) + y(136)  = 1
 c10: y(0) + y(4) + y(9) + y(14) + y(23) + y(28) + y(32) + y(37) + y(42)
      + y(47) + y(51) + y(56) + y(61) + y(66) + y(70) + y(75) + y(80) + y(84)
      + y(89) + y(93) + y(98) + y(103) + y(107) + y(112) + y(117) + y(122)
      + y(126) + y(131) + y(136)  = 1
 c11: y(0) + y(4) + y(9) + y(14) + y(23) + y(28) + y(32) + y(37) + y(42)
      + y(47) + y(51) + y(56) + y(61) + y(66) + y(70) + y(75) + y(80) + y(84)
      + y(89) + y(93) + y(98) + y(103) + y(107) + y(112) + y(117) + y(122)
      + y(126) + y(131) + y(136)  = 1
 c12: y(0) + y(4) + y(9) + y(14) + y(23) + y(28) + y(32) + y(37) + y(42)
      + y(47) + y(51) + y(56) + y(61) + y(66) + y(70) + y(75) + y(80) + y(84)
      + y(89) + y(93) + y(98) + y(103) + y(107) + y(112) + y(117) + y(122)
      + y(126) + y(131) + y(136)  = 1
 c13: y(0) + y(4) + y(13) + y(17) + y(22) + y(27) + y(32) + y(37) + y(42)
      + y(47) + y(51) + y(56) + y(60) + y(65) + y(70) + y(75) + y(80) + y(83)
      + y(88) + y(93) + y(98) + y(103) + y(107) + y(112) + y(116) + y(121)
      + y(126) + y(131) + y(136)  = 1
 c14: y(0) + y(4) + y(13) + y(17) + y(22) + y(27) + y(32) + y(37) + y(42)
      + y(47) + y(51) + y(56) + y(60) + y(65) + y(70) + y(75) + y(80) + y(83)
      + y(88) + y(93) + y(98) + y(103) + y(107) + y(112) + y(116) + y(121)
      + y(126) + y(131) + y(136)  = 1
 c15: y(0) + y(4) + y(13) + y(17) + y(22) + y(27) + y(32) + y(37) + y(42)
      + y(47) + y(51) + y(56) + y(60) + y(65) + y(70) + y(75) + y(80) + y(83)
      + y(88) + y(93) + y(98) + y(103) + y(107) + y(112) + y(116) + y(121)
      + y(126) + y(131) + y(136)  = 1
 c16: y(3) + y(7) + y(12) + y(17) + y(22) + y(27) + y(32) + y(37) + y(42)
      + y(46) + y(50) + y(55) + y(60) + y(65) + y(70) + y(75) + y(79) + y(83)
      + y(88) + y(93) + y(98) + y(102) + y(106) + y(111) + y(116) + y(121)
      + y(126) + y(131) + y(136)  = 1
 c17: y(3) + y(7) + y(12) + y(17) + y(22) + y(27) + y(32) + y(37) + y(42)
      + y(46) + y(50) + y(55) + y(60) + y(65) + y(70) + y(75) + y(79) + y(83)
      + y(88) + y(93) + y(98) + y(102) + y(106) + y(111) + y(116) + y(121)
      + y(126) + y(131) + y(136)  = 1
 c18: y(3) + y(7) + y(12) + y(17) + y(22) + y(27) + y(32) + y(37) + y(42)
      + y(46) + y(50) + y(55) + y(60) + y(65) + y(70) + y(75) + y(79) + y(83)
      + y(88) + y(93) + y(98) + y(102) + y(106) + y(111) + y(116) + y(121)
      + y(126) + y(131) + y(136)  = 1
 c19: y(1) + y(5) + y(10) + y(15) + y(19) + y(24) + y(29) + y(34) + y(39)
      + y(44) + y(48) + y(53) + y(58) + y(67) + y(71) + y(76) + y(81) + y(85)
      + y(90) + y(94) + y(99) + y(104) + y(108) + y(113) + y(118) + y(123)
      + y(127) + y(132) + y(137)  = 1
 c20: y(1) + y(5) + y(10) + y(15) + y(19) + y(24) + y(29) + y(34) + y(39)
      + y(44) + y(48) + y(53) + y(58) + y(67) + y(71) + y(76) + y(81) + y(85)
      + y(90) + y(94) + y(99) + y(104) + y(108) + y(113) + y(118) + y(123)
      + y(127) + y(132) + y(137)  = 1
 c21: y(1) + y(5) + y(10) + y(15) + y(19) + y(24) + y(29) + y(34) + y(39)
      + y(44) + y(48) + y(53) + y(58) + y(67) + y(71) + y(76) + y(81) + y(85)
      + y(90) + y(94) + y(99) + y(104) + y(108) + y(113) + y(118) + y(123)
      + y(127) + y(132) + y(137)  = 1
 c22: y(1) + y(5) + y(9) + y(14) + y(19) + y(24) + y(29) + y(34) + y(39)
      + y(44) + y(52) + y(57) + y(61) + y(66) + y(71) + y(76) + y(81) + y(84)
      + y(89) + y(94) + y(99) + y(104) + y(108) + y(113) + y(117) + y(122)
      + y(127) + y(132) + y(137)  = 1
 c23: y(1) + y(5) + y(9) + y(14) + y(19) + y(24) + y(29) + y(34) + y(39)
      + y(44) + y(52) + y(57) + y(61) + y(66) + y(71) + y(76) + y(81) + y(84)
      + y(89) + y(94) + y(99) + y(104) + y(108) + y(113) + y(117) + y(122)
      + y(127) + y(132) + y(137)  = 1
 c24: y(1) + y(5) + y(9) + y(14) + y(19) + y(24) + y(29) + y(34) + y(39)
      + y(44) + y(52) + y(57) + y(61) + y(66) + y(71) + y(76) + y(81) + y(84)
      + y(89) + y(94) + y(99) + y(104) + y(108) + y(113) + y(117) + y(122)
      + y(127) + y(132) + y(137)  = 1
 c25: y(1) + y(5) + y(9) + y(14) + y(19) + y(24) + y(29) + y(34) + y(39)
      + y(44) + y(48) + y(57) + y(61) + y(66) + y(71) + y(76) + y(81) + y(84)
      + y(89) + y(94) + y(99) + y(104) + y(108) + y(113) + y(117) + y(122)
      + y(127) + y(132) + y(137)  = 1
 c26: y(1) + y(5) + y(9) + y(14) + y(19) + y(24) + y(29) + y(34) + y(39)
      + y(44) + y(48) + y(57) + y(61) + y(66) + y(71) + y(76) + y(81) + y(84)
      + y(89) + y(94) + y(99) + y(104) + y(108) + y(113) + y(117) + y(122)
      + y(127) + y(132) + y(137)  = 1
 c27: y(1) + y(5) + y(9) + y(14) + y(19) + y(24) + y(29) + y(34) + y(39)
      + y(44) + y(48) + y(57) + y(61) + y(66) + y(71) + y(76) + y(81) + y(84)
      + y(89) + y(94) + y(99) + y(104) + y(108) + y(113) + y(117) + y(122)
      + y(127) + y(132) + y(137)  = 1
 c28: y(2) + y(6) + y(11) + y(16) + y(21) + y(26) + y(30) + y(35) + y(40)
      + y(45) + y(49) + y(54) + y(59) + y(64) + y(68) + y(73) + y(78) + y(82)
      + y(87) + y(96) + y(101) + y(105) + y(109) + y(114) + y(119) + y(124)
      + y(129) + y(134) + y(138)  = 1
 c29: y(2) + y(6) + y(11) + y(16) + y(21) + y(26) + y(30) + y(35) + y(40)
      + y(45) + y(49) + y(54) + y(59) + y(64) + y(68) + y(73) + y(78) + y(82)
      + y(87) + y(96) + y(101) + y(105) + y(109) + y(114) + y(119) + y(124)
      + y(129) + y(134) + y(138)  = 1
 c30: y(2) + y(6) + y(11) + y(16) + y(21) + y(26) + y(30) + y(35) + y(40)
      + y(45) + y(49) + y(54) + y(59) + y(64) + y(68) + y(73) + y(78) + y(82)
      + y(87) + y(96) + y(101) + y(105) + y(109) + y(114) + y(119) + y(124)
      + y(129) + y(134) + y(138)  = 1
 c31: y(2) + y(6) + y(11) + y(16) + y(20) + y(25) + y(30) + y(35) + y(40)
      + y(45) + y(49) + y(54) + y(59) + y(63) + y(68) + y(73) + y(78) + y(82)
      + y(91) + y(95) + y(100) + y(105) + y(109) + y(114) + y(119) + y(124)
      + y(128) + y(133) + y(138)  = 1
 c32: y(2) + y(6) + y(11) + y(16) + y(20) + y(25) + y(30) + y(35) + y(40)
      + y(45) + y(49) + y(54) + y(59) + y(63) + y(68) + y(73) + y(78) + y(82)
      + y(91) + y(95) + y(100) + y(105) + y(109) + y(114) + y(119) + y(124)
      + y(128) + y(133) + y(138)  = 1
 c33: y(2) + y(6) + y(11) + y(16) + y(20) + y(25) + y(30) + y(35) + y(40)
      + y(45) + y(49) + y(54) + y(59) + y(63) + y(68) + y(73) + y(78) + y(82)
      + y(91) + y(95) + y(100) + y(105) + y(109) + y(114) + y(119) + y(124)
      + y(128) + y(133) + y(138)  = 1
 c34: y(2) + y(6) + y(11) + y(15) + y(20) + y(25) + y(30) + y(35) + y(40)
      + y(45) + y(49) + y(54) + y(58) + y(63) + y(68) + y(73) + y(78) + y(86)
      + y(91) + y(95) + y(100) + y(105) + y(109) + y(114) + y(119) + y(124)
      + y(128) + y(133) + y(138)  = 1
 c35: y(2) + y(6) + y(11) + y(15) + y(20) + y(25) + y(30) + y(35) + y(40)
      + y(45) + y(49) + y(54) + y(58) + y(63) + y(68) + y(73) + y(78) + y(86)
      + y(91) + y(95) + y(100) + y(105) + y(109) + y(114) + y(119) + y(124)
      + y(128) + y(133) + y(138)  = 1
 c36: y(2) + y(6) + y(11) + y(15) + y(20) + y(25) + y(30) + y(35) + y(40)
      + y(45) + y(49) + y(54) + y(58) + y(63) + y(68) + y(73) + y(78) + y(86)
      + y(91) + y(95) + y(100) + y(105) + y(109) + y(114) + y(119) + y(124)
      + y(128) + y(133) + y(138)  = 1
 c37: y(1) + y(5) + y(10) + y(15) + y(20) + y(25) + y(29) + y(34) + y(39)
      + y(44) + y(48) + y(53) + y(58) + y(63) + y(72) + y(77) + y(81) + y(85)
      + y(90) + y(95) + y(100) + y(104) + y(108) + y(113) + y(118) + y(123)
      + y(128) + y(133) + y(137)  = 1
 c38: y(1) + y(5) + y(10) + y(15) + y(20) + y(25) + y(29) + y(34) + y(39)
      + y(44) + y(48) + y(53) + y(58) + y(63) + y(72) + y(77) + y(81) + y(85)
      + y(90) + y(95) + y(100) + y(104) + y(108) + y(113) + y(118) + y(123)
      + y(128) + y(133) + y(137)  = 1
 c39: y(1) + y(5) + y(10) + y(15) + y(20) + y(25) + y(29) + y(34) + y(39)
      + y(44) + y(48) + y(53) + y(58) + y(63) + y(72) + y(77) + y(81) + y(85)
      + y(90) + y(95) + y(100) + y(104) + y(108) + y(113) + y(118) + y(123)
      + y(128) + y(133) + y(137)  = 1
 c40: y(0) + y(4) + y(9) + y(14) + y(19) + y(24) + y(29) + y(34) + y(39)
      + y(47) + y(51) + y(56) + y(61) + y(66) + y(71) + y(76) + y(80) + y(84)
      + y(89) + y(94) + y(99) + y(103) + y(107) + y(112) + y(117) + y(122)
      + y(127) + y(132) + y(137)  = 1
 c41: y(0) + y(4) + y(9) + y(14) + y(19) + y(24) + y(29) + y(34) + y(39)
      + y(47) + y(51) + y(56) + y(61) + y(66) + y(71) + y(76) + y(80) + y(84)
      + y(89) + y(94) + y(99) + y(103) + y(107) + y(112) + y(117) + y(122)
      + y(127) + y(132) + y(137)  = 1
 c42: y(0) + y(4) + y(9) + y(14) + y(19) + y(24) + y(29) + y(34) + y(39)
      + y(47) + y(51) + y(56) + y(61) + y(66) + y(71) + y(76) + y(80) + y(84)
      + y(89) + y(94) + y(99) + y(103) + y(107) + y(112) + y(117) + y(122)
      + y(127) + y(132) + y(137)  = 1
 c43: y(1) + y(5) + y(10) + y(15) + y(20) + y(25) + y(30) + y(35) + y(40)
      + y(44) + y(48) + y(53) + y(58) + y(63) + y(68) + y(73) + y(81) + y(85)
      + y(90) + y(95) + y(100) + y(104) + y(108) + y(113) + y(118) + y(123)
      + y(128) + y(133) + y(138)  = 1
 c44: y(1) + y(5) + y(10) + y(15) + y(20) + y(25) + y(30) + y(35) + y(40)
      + y(44) + y(48) + y(53) + y(58) + y(63) + y(68) + y(73) + y(81) + y(85)
      + y(90) + y(95) + y(100) + y(104) + y(108) + y(113) + y(118) + y(123)
      + y(128) + y(133) + y(138)  = 1
 c45: y(1) + y(5) + y(10) + y(15) + y(20) + y(25) + y(30) + y(35) + y(40)
      + y(44) + y(48) + y(53) + y(58) + y(63) + y(68) + y(73) + y(81) + y(85)
      + y(90) + y(95) + y(100) + y(104) + y(108) + y(113) + y(118) + y(123)
      + y(128) + y(133) + y(138)  = 1
 c46: y(1) + y(5) + y(10) + y(15) + y(20) + y(25) + y(29) + y(34) + y(39)
      + y(44) + y(48) + y(53) + y(58) + y(63) + y(68) + y(77) + y(81) + y(85)
      + y(90) + y(95) + y(100) + y(104) + y(108) + y(113) + y(118) + y(123)
      + y(128) + y(133) + y(137)  = 1
 c47: y(1) + y(5) + y(10) + y(15) + y(20) + y(25) + y(29) + y(34) + y(39)
      + y(44) + y(48) + y(53) + y(58) + y(63) + y(68) + y(77) + y(81) + y(85)
      + y(90) + y(95) + y(100) + y(104) + y(108) + y(113) + y(118) + y(123)
      + y(128) + y(133) + y(137)  = 1
 c48: y(1) + y(5) + y(10) + y(15) + y(20) + y(25) + y(29) + y(34) + y(39)
      + y(44) + y(48) + y(53) + y(58) + y(63) + y(68) + y(77) + y(81) + y(85)
      + y(90) + y(95) + y(100) + y(104) + y(108) + y(113) + y(118) + y(123)
      + y(128) + y(133) + y(137)  = 1
 c49: y(1) + y(5) + y(10) + y(14) + y(19) + y(24) + y(29) + y(34) + y(39)
      + y(44) + y(48) + y(53) + y(62) + y(67) + y(71) + y(76) + y(81) + y(85)
      + y(90) + y(94) + y(99) + y(104) + y(108) + y(113) + y(118) + y(123)
      + y(127) + y(132) + y(137)  = 1
 c50: y(1) + y(5) + y(10) + y(14) + y(19) + y(24) + y(29) + y(34) + y(39)
      + y(44) + y(48) + y(53) + y(62) + y(67) + y(71) + y(76) + y(81) + y(85)
      + y(90) + y(94) + y(99) + y(104) + y(108) + y(113) + y(118) + y(123)
      + y(127) + y(132) + y(137)  = 1
 c51: y(1) + y(5) + y(10) + y(14) + y(19) + y(24) + y(29) + y(34) + y(39)
      + y(44) + y(48) + y(53) + y(62) + y(67) + y(71) + y(76) + y(81) + y(85)
      + y(90) + y(94) + y(99) + y(104) + y(108) + y(113) + y(118) + y(123)
      + y(127) + y(132) + y(137)  = 1
 c52: y(2) + y(6) + y(11) + y(16) + y(21) + y(26) + y(31) + y(36) + y(41)
      + y(45) + y(49) + y(54) + y(59) + y(64) + y(69) + y(74) + y(78) + y(82)
      + y(87) + y(92) + y(97) + y(105) + y(109) + y(114) + y(119) + y(124)
      + y(129) + y(134) + y(139)  = 1
 c53: y(2) + y(6) + y(11) + y(16) + y(21) + y(26) + y(31) + y(36) + y(41)
      + y(45) + y(49) + y(54) + y(59) + y(64) + y(69) + y(74) + y(78) + y(82)
      + y(87) + y(92) + y(97) + y(105) + y(109) + y(114) + y(119) + y(124)
      + y(129) + y(134) + y(139)  = 1
 c54: y(2) + y(6) + y(11) + y(16) + y(21) + y(26) + y(31) + y(36) + y(41)
      + y(45) + y(49) + y(54) + y(59) + y(64) + y(69) + y(74) + y(78) + y(82)
      + y(87) + y(92) + y(97) + y(105) + y(109) + y(114) + y(119) + y(124)
      + y(129) + y(134) + y(139)  = 1
 c55: y(3) + y(7) + y(12) + y(16) + y(21) + y(26) + y(31) + y(36) + y(41)
      + y(46) + y(50) + y(55) + y(59) + y(64) + y(69) + y(74) + y(79) + y(82)
      + y(87) + y(92) + y(97) + y(102) + y(110) + y(115) + y(120) + y(125)
      + y(129) + y(134) + y(139)  = 1
 c56: y(3) + y(7) + y(12) + y(16) + y(21) + y(26) + y(31) + y(36) + y(41)
      + y(46) + y(50) + y(55) + y(59) + y(64) + y(69) + y(74) + y(79) + y(82)
      + y(87) + y(92) + y(97) + y(102) + y(110) + y(115) + y(120) + y(125)
      + y(129) + y(134) + y(139)  = 1
 c57: y(3) + y(7) + y(12) + y(16) + y(21) + y(26) + y(31) + y(36) + y(41)
      + y(46) + y(50) + y(55) + y(59) + y(64) + y(69) + y(74) + y(79) + y(82)
      + y(87) + y(92) + y(97) + y(102) + y(110) + y(115) + y(120) + y(125)
      + y(129) + y(134) + y(139)  = 1
 c58: y(0) + y(4) + y(9) + y(14) + y(19) + y(24) + y(29) + y(38) + y(43)
      + y(47) + y(51) + y(56) + y(61) + y(66) + y(71) + y(76) + y(80) + y(84)
      + y(89) + y(94) + y(99) + y(103) + y(107) + y(112) + y(117) + y(122)
      + y(127) + y(132) + y(137)  = 1
 c59: y(0) + y(4) + y(9) + y(14) + y(19) + y(24) + y(29) + y(38) + y(43)
      + y(47) + y(51) + y(56) + y(61) + y(66) + y(71) + y(76) + y(80) + y(84)
      + y(89) + y(94) + y(99) + y(103) + y(107) + y(112) + y(117) + y(122)
      + y(127) + y(132) + y(137)  = 1
 c60: y(0) + y(4) + y(9) + y(14) + y(19) + y(24) + y(29) + y(38) + y(43)
      + y(47) + y(51) + y(56) + y(61) + y(66) + y(71) + y(76) + y(80) + y(84)
      + y(89) + y(94) + y(99) + y(103) + y(107) + y(112) + y(117) + y(122)
      + y(127) + y(132) + y(137)  = 1
 c61: y(0) + y(4) + y(9) + y(14) + y(19) + y(24) + y(29) + y(34) + y(43)
      + y(47) + y(51) + y(56) + y(61) + y(66) + y(71) + y(76) + y(80) + y(84)
      + y(89) + y(94) + y(99) + y(103) + y(107) + y(112) + y(117) + y(122)
      + y(127) + y(132) + y(137)  = 1
 c62: y(0) + y(4) + y(9) + y(14) + y(19) + y(24) + y(29) + y(34) + y(43)
      + y(47) + y(51) + y(56) + y(61) + y(66) + y(71) + y(76) + y(80) + y(84)
      + y(89) + y(94) + y(99) + y(103) + y(107) + y(112) + y(117) + y(122)
      + y(127) + y(132) + y(137)  = 1
 c63: y(0) + y(4) + y(9) + y(14) + y(19) + y(24) + y(29) + y(34) + y(43)
      + y(47) + y(51) + y(56) + y(61) + y(66) + y(71) + y(76) + y(80) + y(84)
      + y(89) + y(94) + y(99) + y(103) + y(107) + y(112) + y(117) + y(122)
      + y(127) + y(132) + y(137)  = 1
 c64: y(0) + y(4) + y(9) + y(14) + y(19) + y(24) + y(33) + y(38) + y(43)
      + y(47) + y(51) + y(56) + y(61) + y(66) + y(71) + y(76) + y(80) + y(84)
      + y(89) + y(94) + y(99) + y(103) + y(107) + y(112) + y(117) + y(122)
      + y(127) + y(132) + y(136)  = 1
 c65: y(0) + y(4) + y(9) + y(14) + y(19) + y(24) + y(33) + y(38) + y(43)
      + y(47) + y(51) + y(56) + y(61) + y(66) + y(71) + y(76) + y(80) + y(84)
      + y(89) + y(94) + y(99) + y(103) + y(107) + y(112) + y(117) + y(122)
      + y(127) + y(132) + y(136)  = 1
 c66: y(0) + y(4) + y(9) + y(14) + y(19) + y(24) + y(33) + y(38) + y(43)
      + y(47) + y(51) + y(56) + y(61) + y(66) + y(71) + y(76) + y(80) + y(84)
      + y(89) + y(94) + y(99) + y(103) + y(107) + y(112) + y(117) + y(122)
      + y(127) + y(132) + y(136)  = 1
 c67: y(2) + y(6) + y(11) + y(16) + y(21) + y(26) + y(30) + y(35) + y(40)
      + y(45) + y(49) + y(54) + y(59) + y(64) + y(68) + y(73) + y(78) + y(82)
      + y(87) + y(92) + y(101) + y(105) + y(109) + y(114) + y(119) + y(124)
      + y(129) + y(134) + y(138)  = 1
 c68: y(2) + y(6) + y(11) + y(16) + y(21) + y(26) + y(30) + y(35) + y(40)
      + y(45) + y(49) + y(54) + y(59) + y(64) + y(68) + y(73) + y(78) + y(82)
      + y(87) + y(92) + y(101) + y(105) + y(109) + y(114) + y(119) + y(124)
      + y(129) + y(134) + y(138)  = 1
 c69: y(2) + y(6) + y(11) + y(16) + y(21) + y(26) + y(30) + y(35) + y(40)
      + y(45) + y(49) + y(54) + y(59) + y(64) + y(68) + y(73) + y(78) + y(82)
      + y(87) + y(92) + y(101) + y(105) + y(109) + y(114) + y(119) + y(124)
      + y(129) + y(134) + y(138)  = 1
 c70: y(3) + y(7) + y(12) + y(17) + y(22) + y(27) + y(32) + y(37) + y(42)
      + y(46) + y(50) + y(55) + y(60) + y(65) + y(70) + y(75) + y(79) + y(83)
      + y(88) + y(93) + y(98) + y(102) + y(106) + y(111) + y(116) + y(121)
      + y(126) + y(131) + y(140)  = 1
 c71: y(3) + y(7) + y(12) + y(17) + y(22) + y(27) + y(32) + y(37) + y(42)
      + y(46) + y(50) + y(55) + y(60) + y(65) + y(70) + y(75) + y(79) + y(83)
      + y(88) + y(93) + y(98) + y(102) + y(106) + y(111) + y(116) + y(121)
      + y(126) + y(131) + y(140)  = 1
 c72: y(3) + y(7) + y(12) + y(17) + y(22) + y(27) + y(32) + y(37) + y(42)
      + y(46) + y(50) + y(55) + y(60) + y(65) + y(70) + y(75) + y(79) + y(83)
      + y(88) + y(93) + y(98) + y(102) + y(106) + y(111) + y(116) + y(121)
      + y(126) + y(131) + y(140)  = 1
 c73: y(3) + y(7) + y(12) + y(17) + y(22) + y(27) + y(31) + y(36) + y(41)
      + y(46) + y(50) + y(55) + y(60) + y(65) + y(69) + y(74) + y(79) + y(83)
      + y(88) + y(93) + y(97) + y(102) + y(106) + y(111) + y(116) + y(121)
      + y(126) + y(135) + y(139)  = 1
 c74: y(3) + y(7) + y(12) + y(17) + y(22) + y(27) + y(31) + y(36) + y(41)
      + y(46) + y(50) + y(55) + y(60) + y(65) + y(69) + y(74) + y(79) + y(83)
      + y(88) + y(93) + y(97) + y(102) + y(106) + y(111) + y(116) + y(121)
      + y(126) + y(135) + y(139)  = 1
 c75: y(3) + y(7) + y(12) + y(17) + y(22) + y(27) + y(31) + y(36) + y(41)
      + y(46) + y(50) + y(55) + y(60) + y(65) + y(69) + y(74) + y(79) + y(83)
      + y(88) + y(93) + y(97) + y(102) + y(106) + y(111) + y(116) + y(121)
      + y(126) + y(135) + y(139)  = 1
 c76: y(3) + y(7) + y(12) + y(16) + y(21) + y(26) + y(31) + y(36) + y(41)
      + y(46) + y(50) + y(55) + y(59) + y(64) + y(69) + y(74) + y(79) + y(82)
      + y(87) + y(92) + y(97) + y(102) + y(106) + y(115) + y(120) + y(125)
      + y(129) + y(134) + y(139)  = 1
 c77: y(3) + y(7) + y(12) + y(16) + y(21) + y(26) + y(31) + y(36) + y(41)
      + y(46) + y(50) + y(55) + y(59) + y(64) + y(69) + y(74) + y(79) + y(82)
      + y(87) + y(92) + y(97) + y(102) + y(106) + y(115) + y(120) + y(125)
      + y(129) + y(134) + y(139)  = 1
 c78: y(3) + y(7) + y(12) + y(16) + y(21) + y(26) + y(31) + y(36) + y(41)
      + y(46) + y(50) + y(55) + y(59) + y(64) + y(69) + y(74) + y(79) + y(82)
      + y(87) + y(92) + y(97) + y(102) + y(106) + y(115) + y(120) + y(125)
      + y(129) + y(134) + y(139)  = 1
 c79: y(3) + y(7) + y(12) + y(17) + y(21) + y(26) + y(31) + y(36) + y(41)
      + y(46) + y(50) + y(55) + y(60) + y(64) + y(69) + y(74) + y(79) + y(83)
      + y(87) + y(92) + y(97) + y(102) + y(106) + y(111) + y(116) + y(125)
      + y(129) + y(134) + y(139)  = 1
 c80: y(3) + y(7) + y(12) + y(17) + y(21) + y(26) + y(31) + y(36) + y(41)
      + y(46) + y(50) + y(55) + y(60) + y(64) + y(69) + y(74) + y(79) + y(83)
      + y(87) + y(92) + y(97) + y(102) + y(106) + y(111) + y(116) + y(125)
      + y(129) + y(134) + y(139)  = 1
 c81: y(3) + y(7) + y(12) + y(17) + y(21) + y(26) + y(31) + y(36) + y(41)
      + y(46) + y(50) + y(55) + y(60) + y(64) + y(69) + y(74) + y(79) + y(83)
      + y(87) + y(92) + y(97) + y(102) + y(106) + y(111) + y(116) + y(125)
      + y(129) + y(134) + y(139)  = 1
 c82: y(3) + y(7) + y(12) + y(16) + y(21) + y(26) + y(31) + y(36) + y(41)
      + y(46) + y(50) + y(55) + y(59) + y(64) + y(69) + y(74) + y(79) + y(82)
      + y(87) + y(92) + y(97) + y(102) + y(106) + y(111) + y(120) + y(125)
      + y(129) + y(134) + y(139)  = 1
 c83: y(3) + y(7) + y(12) + y(16) + y(21) + y(26) + y(31) + y(36) + y(41)
      + y(46) + y(50) + y(55) + y(59) + y(64) + y(69) + y(74) + y(79) + y(82)
      + y(87) + y(92) + y(97) + y(102) + y(106) + y(111) + y(120) + y(125)
      + y(129) + y(134) + y(139)  = 1
 c84: y(3) + y(7) + y(12) + y(16) + y(21) + y(26) + y(31) + y(36) + y(41)
      + y(46) + y(50) + y(55) + y(59) + y(64) + y(69) + y(74) + y(79) + y(82)
      + y(87) + y(92) + y(97) + y(102) + y(106) + y(111) + y(120) + y(125)
      + y(129) + y(134) + y(139)  = 1
 c85: y(3) + y(7) + y(12) + y(17) + y(22) + y(27) + y(31) + y(36) + y(41)
      + y(46) + y(50) + y(55) + y(60) + y(65) + y(69) + y(74) + y(79) + y(83)
      + y(88) + y(92) + y(97) + y(102) + y(106) + y(111) + y(116) + y(121)
      + y(130) + y(135) + y(139)  = 1
 c86: y(3) + y(7) + y(12) + y(17) + y(22) + y(27) + y(31) + y(36) + y(41)
      + y(46) + y(50) + y(55) + y(60) + y(65) + y(69) + y(74) + y(79) + y(83)
      + y(88) + y(92) + y(97) + y(102) + y(106) + y(111) + y(116) + y(121)
      + y(130) + y(135) + y(139)  = 1
 c87: y(3) + y(7) + y(12) + y(17) + y(22) + y(27) + y(31) + y(36) + y(41)
      + y(46) + y(50) + y(55) + y(60) + y(65) + y(69) + y(74) + y(79) + y(83)
      + y(88) + y(92) + y(97) + y(102) + y(106) + y(111) + y(116) + y(121)
      + y(130) + y(135) + y(139)  = 1
 c88: y(0) + y(1) + y(2) + y(3) + y(4) + y(5) + y(6) + y(7) + y(8) + y(9)
      + y(10) + y(11) + y(12) + y(13) + y(14) + y(15) + y(16) + y(17) + y(18)
      + y(19) + y(20) + y(21) + y(22) + y(23) + y(24) + y(25) + y(26) + y(27)
      + y(28) + y(29) + y(30) + y(31) + y(32) + y(33) + y(34) + y(35) + y(36)
      + y(37) + y(38) + y(39) + y(40) + y(41) + y(42) + y(43) + y(44) + y(45)
      + y(46) + y(47) + y(48) + y(49) + y(50) + y(51) + y(52) + y(53) + y(54)
      + y(55) + y(56) + y(57) + y(58) + y(59) + y(60) + y(61) + y(62) + y(63)
      + y(64) + y(65) + y(66) + y(67) + y(68) + y(69) + y(70) + y(71) + y(72)
      + y(73) + y(74) + y(75) + y(76) + y(77) + y(78) + y(79) + y(80) + y(81)
      + y(82) + y(83) + y(84) + y(85) + y(86) + y(87) + y(88) + y(89) + y(90)
      + y(91) + y(92) + y(93) + y(94) + y(95) + y(96) + y(97) + y(98) + y(99)
      + y(100) + y(101) + y(102) + y(103) + y(104) + y(105) + y(106) + y(107)
      + y(108) + y(109) + y(110) + y(111) + y(112) + y(113) + y(114) + y(115)
      + y(116) + y(117) + y(118) + y(119) + y(120) + y(121) + y(122) + y(123)
      + y(124) + y(125) + y(126) + y(127) + y(128) + y(129) + y(130) + y(131)
      + y(132) + y(133) + y(134) + y(135) + y(136) + y(137) + y(138) + y(139)
      + y(140) >= 3
 c89: y(0) + y(1) + y(2) + y(3) + y(4) + y(5) + y(6) + y(7) + y(8) + y(9)
      + y(10) + y(11) + y(12) + y(13) + y(14) + y(15) + y(16) + y(17) + y(18)
      + y(19) + y(20) + y(21) + y(22) + y(23) + y(24) + y(25) + y(26) + y(27)
      + y(28) + y(29) + y(30) + y(31) + y(32) + y(33) + y(34) + y(35) + y(36)
      + y(37) + y(38) + y(39) + y(40) + y(41) + y(42) + y(43) + y(44) + y(45)
      + y(46) + y(47) + y(48) + y(49) + y(50) + y(51) + y(52) + y(53) + y(54)
      + y(55) + y(56) + y(57) + y(58) + y(59) + y(60) + y(61) + y(62) + y(63)
      + y(64) + y(65) + y(66) + y(67) + y(68) + y(69) + y(70) + y(71) + y(72)
      + y(73) + y(74) + y(75) + y(76) + y(77) + y(78) + y(79) + y(80) + y(81)
      + y(82) + y(83) + y(84) + y(85) + y(86) + y(87) + y(88) + y(89) + y(90)
      + y(91) + y(92) + y(93) + y(94) + y(95) + y(96) + y(97) + y(98) + y(99)
      + y(100) + y(101) + y(102) + y(103) + y(104) + y(105) + y(106) + y(107)
      + y(108) + y(109) + y(110) + y(111) + y(112) + y(113) + y(114) + y(115)
      + y(116) + y(117) + y(118) + y(119) + y(120) + y(121) + y(122) + y(123)
      + y(124) + y(125) + y(126) + y(127) + y(128) + y(129) + y(130) + y(131)
      + y(132) + y(133) + y(134) + y(135) + y(136) + y(137) + y(138) + y(139)
      + y(140) <= 8
Bounds
 0 <= y(0) <= 1
 0 <= y(1) <= 1
 0 <= y(2) <= 1
 0 <= y(3) <= 1
 0 <= y(4) <= 1
 0 <= y(5) <= 1
 0 <= y(6) <= 1
 0 <= y(7) <= 1
 0 <= y(8) <= 1
 0 <= y(9) <= 1
 0 <= y(10) <= 1
 0 <= y(11) <= 1
 0 <= y(12) <= 1
 0 <= y(13) <= 1
 0 <= y(14) <= 1
 0 <= y(15) <= 1
 0 <= y(16) <= 1
 0 <= y(17) <= 1
 0 <= y(18) <= 1
 0 <= y(19) <= 1
 0 <= y(20) <= 1
 0 <= y(21) <= 1
 0 <= y(22) <= 1
 0 <= y(23) <= 1
 0 <= y(24) <= 1
 0 <= y(25) <= 1
 0 <= y(26) <= 1
 0 <= y(27) <= 1
 0 <= y(28) <= 1
 0 <= y(29) <= 1
 0 <= y(30) <= 1
 0 <= y(31) <= 1
 0 <= y(32) <= 1
 0 <= y(33) <= 1
 0 <= y(34) <= 1
 0 <= y(35) <= 1
 0 <= y(36) <= 1
 0 <= y(37) <= 1
 0 <= y(38) <= 1
 0 <= y(39) <= 1
 0 <= y(40) <= 1
 0 <= y(41) <= 1
 0 <= y(42) <= 1
 0 <= y(43) <= 1
 0 <= y(44) <= 1
 0 <= y(45) <= 1
 0 <= y(46) <= 1
 0 <= y(47) <= 1
 0 <= y(48) <= 1
 0 <= y(49) <= 1
 0 <= y(50) <= 1
 0 <= y(51) <= 1
 0 <= y(52) <= 1
 0 <= y(53) <= 1
 0 <= y(54) <= 1
 0 <= y(55) <= 1
 0 <= y(56) <= 1
 0 <= y(57) <= 1
 0 <= y(58) <= 1
 0 <= y(59) <= 1
 0 <= y(60) <= 1
 0 <= y(61) <= 1
 0 <= y(62) <= 1
 0 <= y(63) <= 1
 0 <= y(64) <= 1
 0 <= y(65) <= 1
 0 <= y(66) <= 1
 0 <= y(67) <= 1
 0 <= y(68) <= 1
 0 <= y(69) <= 1
 0 <= y(70) <= 1
 0 <= y(71) <= 1
 0 <= y(72) <= 1
 0 <= y(73) <= 1
 0 <= y(74) <= 1
 0 <= y(75) <= 1
 0 <= y(76) <= 1
 0 <= y(77) <= 1
 0 <= y(78) <= 1
 0 <= y(79) <= 1
 0 <= y(80) <= 1
 0 <= y(81) <= 1
 0 <= y(82) <= 1
 0 <= y(83) <= 1
 0 <= y(84) <= 1
 0 <= y(85) <= 1
 0 <= y(86) <= 1
 0 <= y(87) <= 1
 0 <= y(88) <= 1
 0 <= y(89) <= 1
 0 <= y(90) <= 1
 0 <= y(91) <= 1
 0 <= y(92) <= 1
 0 <= y(93) <= 1
 0 <= y(94) <= 1
 0 <= y(95) <= 1
 0 <= y(96) <= 1
 0 <= y(97) <= 1
 0 <= y(98) <= 1
 0 <= y(99) <= 1
 0 <= y(100) <= 1
 0 <= y(101) <= 1
 0 <= y(102) <= 1
 0 <= y(103) <= 1
 0 <= y(104) <= 1
 0 <= y(105) <= 1
 0 <= y(106) <= 1
 0 <= y(107) <= 1
 0 <= y(108) <= 1
 0 <= y(109) <= 1
 0 <= y(110) <= 1
 0 <= y(111) <= 1
 0 <= y(112) <= 1
 0 <= y(113) <= 1
 0 <= y(114) <= 1
 0 <= y(115) <= 1
 0 <= y(116) <= 1
 0 <= y(117) <= 1
 0 <= y(118) <= 1
 0 <= y(119) <= 1
 0 <= y(120) <= 1
 0 <= y(121) <= 1
 0 <= y(122) <= 1
 0 <= y(123) <= 1
 0 <= y(124) <= 1
 0 <= y(125) <= 1
 0 <= y(126) <= 1
 0 <= y(127) <= 1
 0 <= y(128) <= 1
 0 <= y(129) <= 1
 0 <= y(130) <= 1
 0 <= y(131) <= 1
 0 <= y(132) <= 1
 0 <= y(133) <= 1
 0 <= y(134) <= 1
 0 <= y(135) <= 1
 0 <= y(136) <= 1
 0 <= y(137) <= 1
 0 <= y(138) <= 1
 0 <= y(139) <= 1
 0 <= y(140) <= 1
Binaries
 y(0)  y(1)  y(2)  y(3)  y(4)  y(5)  y(6)  y(7)  y(8)  y(9)  y(10)  y(11) 
 y(12)  y(13)  y(14)  y(15)  y(16)  y(17)  y(18)  y(19)  y(20)  y(21)  y(22) 
 y(23)  y(24)  y(25)  y(26)  y(27)  y(28)  y(29)  y(30)  y(31)  y(32)  y(33) 
 y(34)  y(35)  y(36)  y(37)  y(38)  y(39)  y(40)  y(41)  y(42)  y(43)  y(44) 
 y(45)  y(46)  y(47)  y(48)  y(49)  y(50)  y(51)  y(52)  y(53)  y(54)  y(55) 
 y(56)  y(57)  y(58)  y(59)  y(60)  y(61)  y(62)  y(63)  y(64)  y(65)  y(66) 
 y(67)  y(68)  y(69)  y(70)  y(71)  y(72)  y(73)  y(74)  y(75)  y(76)  y(77) 
 y(78)  y(79)  y(80)  y(81)  y(82)  y(83)  y(84)  y(85)  y(86)  y(87)  y(88) 
 y(89)  y(90)  y(91)  y(92)  y(93)  y(94)  y(95)  y(96)  y(97)  y(98)  y(99) 
 y(100)  y(101)  y(102)  y(103)  y(104)  y(105)  y(106)  y(107)  y(108) 
 y(109)  y(110)  y(111)  y(112)  y(113)  y(114)  y(115)  y(116)  y(117) 
 y(118)  y(119)  y(120)  y(121)  y(122)  y(123)  y(124)  y(125)  y(126) 
 y(127)  y(128)  y(129)  y(130)  y(131)  y(132)  y(133)  y(134)  y(135) 
 y(136)  y(137)  y(138)  y(139)  y(140) 
End
